problems/csplib-prob056/sonet-models/noch/O0/minion/model_2_1-s2ring01-solution000001.eprime-solution
language ESSENCE' 1.0

letting network_ExplicitWithFlagsR6_Flags be [1, 1, 1, 1, 1, 1; int(1..6)]
letting network_ExplicitWithFlagsR6_Values_ExplicitVarSizeWithDummy be
        [[1, 2, 3, 4, 5; int(1..5)], [1, 2, 3, 4, 6; int(1..5)], [1, 2, 3, 9, 10; int(1..5)],
         [1, 11, 11, 11, 11; int(1..5)], [5, 7, 8, 9, 10; int(1..5)], [11, 11, 11, 11, 11; int(1..5)];
             int(1..6)]
