problems/csplib-prob056/sonet-models/noch/O0/minion/model_2_1-s2ring01-solution000001.solution
language Essence 1.3

letting network be mset({}, {1}, {1, 2, 3, 4, 5}, {1, 2, 3, 4, 6}, {1, 2, 3, 9, 10}, {5, 7, 8, 9, 10})
$ Visualisation for network
$ 
$  1
$  1  2  3  4  5
$  1  2  3  4  6
$  1  2  3  9 10
$  5  7  8  9 10

